[[64, 55, 56, 57, 58, 59, 49, 50, 47, 46, 38, 48, 39, 40, 41, 32, 31, 30, 29, 37, 28, 19, 21, 22, 20, 13, 12, 11, 10, 2, 3, 4, 14, 5, 6, 7, 8, 9, 18, 17, 16, 15, 23, 24, 25, 26, 27, 35, 36, 44], [34, 33, 42, 43, 45, 54, 53, 52, 51, 60, 63, 62, 61, 70, 69, 78, 71, 72, 81, 80, 79, 88, 89, 90, 99, 98, 97, 96, 87, 86, 95, 94, 93, 92, 91, 83, 82, 73, 84, 85, 76, 77, 67, 68, 75, 66, 74, 65]]